Optimal - objective value 4.00000000
      8 x_0_8                       1         0.249447282152931
     21 x_1_6                       1                       0
     42 x_2_12                      1         0.570862239841427
     53 x_3_8                       1                       0
     71 x_4_11                      1                       0
     81 x_5_6                       1                       0
     98 x_6_8                       1                       0
    116 x_7_11                      1                       0
    126 x_8_6                       1                       0
    141 x_9_6                       1                       0
    161 x_10_11                     1         -0.0178394449950446
    171 x_11_6                      1         0.197453686056263
    188 x_12_8                      1                       0
    206 x_13_11                     1         -0.22398414271556
    222 x_14_12                     1                       0
    231 y_6                         1         -0.028715915732764
    233 y_8                         1                       0
    236 y_11                        1         0.382328276282687
    237 y_12                        1                       0
